nNurses = 226;
hours = 85;
demand = [38 54 34 9 39 27 24 18 1 2 42 10 28 2 29 6 17 7 21 8 38 14 38 12 2 11 38 43 16 43 42 19 7 8 6 43 45 19 12 48 18 3 37 50 24 3 23 0 47 34 10 55 53 38 50 38 17 12 15 14 45 6 37 3 31 1 27 52 4 25 8 20 27 52 50 56 44 2 25 47 26 38 7 32 1];
minHours = 40;
maxHours = 42;
maxConsec = 27;
maxPresence = 48;